
Gurobi 7.0.2 (linux64, Python) logging started Tue Mar  7 14:53:20 2017


Gurobi 7.0.2 (linux64, Python) logging started Wed Mar  8 19:17:20 2017


Gurobi 7.0.2 (linux64, Python) logging started Wed Mar  8 19:46:10 2017


Gurobi 7.0.2 (linux64, Python) logging started Wed Mar  8 20:03:49 2017


Gurobi 7.0.2 (linux64, Python) logging started Wed Mar  8 20:21:11 2017


Gurobi 7.0.2 (linux64, Python) logging started Wed Mar  8 20:37:28 2017

